p wcnf 111 131
1210 -1 2 0
1210 -1 3 0
1210 -1 4 0
1210 -1 5 0
1210 -1 6 0
1210 -1 7 0
1210 -1 8 0
1210 -1 9 0
1210 -1 10 0
1210 -1 11 0
550 12 -2 -2 0
550 13 -2 -3 0
550 14 -2 -4 0
550 15 -2 -5 0
550 16 -2 -6 0
550 17 -2 -7 0
550 18 -2 -8 0
550 19 -2 -9 0
550 20 -2 -10 0
550 21 -2 -11 0
550 22 -3 -2 0
550 23 -3 -3 0
550 24 -3 -4 0
550 25 -3 -5 0
550 26 -3 -6 0
550 27 -3 -7 0
550 28 -3 -8 0
550 29 -3 -9 0
550 30 -3 -10 0
550 31 -3 -11 0
550 32 -4 -2 0
550 33 -4 -3 0
550 34 -4 -4 0
550 35 -4 -5 0
550 36 -4 -6 0
550 37 -4 -7 0
550 38 -4 -8 0
550 39 -4 -9 0
550 40 -4 -10 0
550 41 -4 -11 0
550 42 -5 -2 0
550 43 -5 -3 0
550 44 -5 -4 0
550 45 -5 -5 0
550 46 -5 -6 0
550 47 -5 -7 0
550 48 -5 -8 0
550 49 -5 -9 0
550 50 -5 -10 0
550 51 -5 -11 0
550 52 -6 -2 0
550 53 -6 -3 0
550 54 -6 -4 0
550 55 -6 -5 0
550 56 -6 -6 0
550 57 -6 -7 0
550 58 -6 -8 0
550 59 -6 -9 0
550 60 -6 -10 0
550 61 -6 -11 0
550 62 -7 -2 0
550 63 -7 -3 0
550 64 -7 -4 0
550 65 -7 -5 0
550 66 -7 -6 0
550 67 -7 -7 0
550 68 -7 -8 0
550 69 -7 -9 0
550 70 -7 -10 0
550 71 -7 -11 0
550 72 -8 -2 0
550 73 -8 -3 0
550 74 -8 -4 0
550 75 -8 -5 0
550 76 -8 -6 0
550 77 -8 -7 0
550 78 -8 -8 0
550 79 -8 -9 0
550 80 -8 -10 0
550 81 -8 -11 0
550 82 -9 -2 0
550 83 -9 -3 0
550 84 -9 -4 0
550 85 -9 -5 0
550 86 -9 -6 0
550 87 -9 -7 0
550 88 -9 -8 0
550 89 -9 -9 0
550 90 -9 -10 0
550 91 -9 -11 0
550 92 -10 -2 0
550 93 -10 -3 0
550 94 -10 -4 0
550 95 -10 -5 0
550 96 -10 -6 0
550 97 -10 -7 0
550 98 -10 -8 0
550 99 -10 -9 0
550 100 -10 -10 0
550 101 -10 -11 0
550 102 -11 -2 0
550 103 -11 -3 0
550 104 -11 -4 0
550 105 -11 -5 0
550 106 -11 -6 0
550 107 -11 -7 0
550 108 -11 -8 0
550 109 -11 -9 0
550 110 -11 -10 0
550 111 -11 -11 0
6050 1 0
440 -2 0
440 -3 0
440 -4 0
440 -5 0
440 -6 0
440 -7 0
440 -8 0
440 -9 0
440 -10 0
440 -11 0
1 -12 0
1 -23 0
1 -34 0
1 -45 0
1 -56 0
1 -67 0
1 -78 0
1 -89 0
1 -100 0
1 -111 0
